benchmarks/denorm/prodbin/prodbin_denorm_inv1_len5_4.smt2
;--------------------------------------------------------------------------
; Benchmark created with Zazu
; Benchmark: 		prodbin_denorm_inv1_len5_4
; Created:   		2022-01-05 21:28
; Generator of the ideal: 
; 		 -x00*y00 + x*y + z - z00
; Testing invariant: (-x00*y00 + x*y + z - z00) * (-x*y^2*z^3 + y*z + x^2*y^3*z^3 + x^3*z^3 + x^3*y^3)
;--------------------------------------------------------------------------

(set-logic NIA)
(set-option :produce-proofs true)

(declare-const x00 Int)
(declare-const y00 Int)
(declare-const z00 Int)

(assert 
	(exists
		((x Int) (y Int) (z Int))
		(and
			(= (- (+ (* (- 1) x00 y00) (* x y) z) z00) 0)

			(or
				(not (= (* (- (+ (* (- 1) x00 y00) (* 2 x (/ (- y 1) 2)) z x) z00) (+ (* (- 1) 2 x (/ (- y 1) 2) (/ (- y 1) 2) (+ z x) (+ z x) (+ z x)) (* (/ (- y 1) 2) (+ z x)) (* 2 x 2 x (/ (- y 1) 2) (/ (- y 1) 2) (/ (- y 1) 2) (+ z x) (+ z x) (+ z x)) (* 2 x 2 x 2 x (+ z x) (+ z x) (+ z x)) (* 2 x 2 x 2 x (/ (- y 1) 2) (/ (- y 1) 2) (/ (- y 1) 2)))) 0))
				(not (= (* (- (+ (* (- 1) x00 y00) (* 2 x (/ y 2)) z) z00) (+ (* (- 1) 2 x (/ y 2) (/ y 2) z z z) (* (/ y 2) z) (* 2 x 2 x (/ y 2) (/ y 2) (/ y 2) z z z) (* 2 x 2 x 2 x z z z) (* 2 x 2 x 2 x (/ y 2) (/ y 2) (/ y 2)))) 0))
			)
		)
	)
)
(check-sat)
(get-proof)
(exit)
